30
1 0 1
3 1 1
4 0 1
4 3 1
5 1 1
5 2 1
5 3 1
5 4 1
6 2 1
6 3 1
7 0 1
7 2 1
7 6 1
8 2 1
8 4 1
8 5 1
8 6 1
9 0 1
9 1 1
9 5 1
9 6 1
9 7 1
10 0 1
10 1 1
10 2 1
10 4 1
10 5 1
10 6 1
10 8 1
10 9 1
11 0 1
11 1 1
11 2 1
11 3 1
11 9 1
12 0 1
12 1 1
12 2 1
12 3 1
12 4 1
12 5 1
12 6 1
12 11 1
13 2 1
13 10 1
14 1 1
14 2 1
14 5 1
14 6 1
14 9 1
14 12 1
14 13 1
15 2 1
15 3 1
15 4 1
15 5 1
15 9 1
15 12 1
15 13 1
15 14 1
16 0 1
16 3 1
16 4 1
16 5 1
16 6 1
16 12 1
16 14 1
17 1 1
17 4 1
17 5 1
17 7 1
17 9 1
17 10 1
17 11 1
17 12 1
17 14 1
17 15 1
17 16 1
18 0 1
18 1 1
18 2 1
18 3 1
18 4 1
18 6 1
18 7 1
18 9 1
18 12 1
18 15 1
18 16 1
19 0 1
19 2 1
19 3 1
19 5 1
19 6 1
19 8 1
19 11 1
19 12 1
19 14 1
19 15 1
19 17 1
20 1 1
20 3 1
20 4 1
20 5 1
20 6 1
20 10 1
20 13 1
20 15 1
20 16 1
20 17 1
20 18 1
21 1 1
21 2 1
21 3 1
21 4 1
21 7 1
21 9 1
21 11 1
21 13 1
21 16 1
21 18 1
21 20 1
22 1 1
22 2 1
22 3 1
22 5 1
22 6 1
22 7 1
22 9 1
22 10 1
22 15 1
22 19 1
22 20 1
23 0 1
23 1 1
23 4 1
23 6 1
23 8 1
23 9 1
23 10 1
23 13 1
23 14 1
23 16 1
23 17 1
23 19 1
23 20 1
23 21 1
23 22 1
24 1 1
24 2 1
24 5 1
24 6 1
24 8 1
24 9 1
24 13 1
24 15 1
24 17 1
24 19 1
24 23 1
25 4 1
25 5 1
25 6 1
25 7 1
25 12 1
25 13 1
25 17 1
25 22 1
25 23 1
25 24 1
26 0 1
26 1 1
26 4 1
26 5 1
26 6 1
26 7 1
26 8 1
26 9 1
26 10 1
26 11 1
26 14 1
26 15 1
26 19 1
26 20 1
26 21 1
26 22 1
26 24 1
26 25 1
27 1 1
27 3 1
27 4 1
27 8 1
27 10 1
27 13 1
27 14 1
27 15 1
27 21 1
27 24 1
27 26 1
28 1 1
28 2 1
28 3 1
28 5 1
28 10 1
28 12 1
28 16 1
28 21 1
28 22 1
28 24 1
28 25 1
28 26 1
29 0 1
29 1 1
29 2 1
29 4 1
29 5 1
29 6 1
29 7 1
29 8 1
29 9 1
29 10 1
29 12 1
29 14 1
29 15 1
29 17 1
29 18 1
29 19 1
29 21 1
29 22 1
29 23 1
29 24 1
29 25 1
29 28 1
